Log file: C:\Users\user\robust_bilevel_network_games\true_dro\S20_beta0p3_cov95\log_polska_20260417_1440418.txt
Started: 2026-04-17T14:40:49.418


======================================================================
INSTANCE: polska (S=20, β=0.3, ε̂=0.67, ε̃=0.67)
======================================================================
============================================================
POLSKA Network Summary
============================================================
Number of nodes: 12
Number of arcs (incl. dummy): 37
Number of regular arcs: 36
Number of interdictable arcs: 28
Source node: s (Szczecin)
Sink node: t (Rzeszow)
Node-incidence matrix N dimensions: (11, 37)

Sparsity Information:
  Arc-arc adjacency: 384 / 1296 pairs (70.4% sparse)
  Node-arc incidence: 68 / 396 pairs (82.8% sparse)

First 15 arcs:
  Arc 1: ("Bialystok", "Gdansk") [Interdictable: ✓]
  Arc 2: ("Bialystok", "Warsaw") [Interdictable: ✓]
  Arc 3: ("Bialystok", "t") [Interdictable: ✗]
  Arc 4: ("Bydgoszcz", "Kolobrzeg") [Interdictable: ✓]
  Arc 5: ("Bydgoszcz", "Poznan") [Interdictable: ✓]
  Arc 6: ("Bydgoszcz", "Warsaw") [Interdictable: ✓]
  Arc 7: ("Gdansk", "Bialystok") [Interdictable: ✓]
  Arc 8: ("Gdansk", "Kolobrzeg") [Interdictable: ✓]
  Arc 9: ("Gdansk", "Warsaw") [Interdictable: ✓]
  Arc 10: ("Katowice", "Krakow") [Interdictable: ✓]
  Arc 11: ("Katowice", "Lodz") [Interdictable: ✓]
  Arc 12: ("Katowice", "Wroclaw") [Interdictable: ✓]
  Arc 13: ("Kolobrzeg", "Bydgoszcz") [Interdictable: ✓]
  Arc 14: ("Kolobrzeg", "Gdansk") [Interdictable: ✓]
  Arc 15: ("Kolobrzeg", "s") [Interdictable: ✗]
============================================================
  |A|=36, S=20, γ=3, w=3.137, λU=2.0
  ε̂=0.67, ε̃=0.67

----------------------------------------
VI-only OMP diagnostic (no Benders cuts)
Set parameter Username
Set parameter LicenseID to value 2742039
Academic license - for non-commercial use only - expires 2026-11-20
Set parameter OutputFlag to value 1
Set parameter OutputFlag to value 1
Gurobi Optimizer version 13.0.0 build v13.0.0rc1 (win64 - Windows 10.0 (19045.2))

CPU model: AMD Ryzen 9 5900X 12-Core Processor, instruction set [SSE2|AVX|AVX2]
Thread count: 12 physical cores, 24 logical processors, using up to 24 threads

Optimize a model with 2910 rows, 1697 columns and 8465 nonzeros (Min)
Model fingerprint: 0xbbcde029
Model has 1 linear objective coefficients
Variable types: 1661 continuous, 36 integer (36 binary)
Coefficient statistics:
  Matrix range     [1e-02, 1e+00]
  Objective range  [1e+00, 1e+00]
  Bounds range     [1e+00, 1e+04]
  RHS range        [1e+00, 3e+00]
Found heuristic solution: objective 26.2956887
Presolve removed 1369 rows and 392 columns
Presolve time: 0.01s
Presolved: 1541 rows, 1305 columns, 3625 nonzeros
Found heuristic solution: objective 26.2956887
Variable types: 1280 continuous, 25 integer (25 binary)

Root relaxation: objective 5.717649e-15, 297 iterations, 0.00 seconds (0.00 work units)

    Nodes    |    Current Node    |     Objective Bounds      |     Work
 Expl Unexpl |  Obj  Depth IntInf | Incumbent    BestBd   Gap | It/Node Time

*    0     0               0       0.0000000    0.00000  0.00%     -    0s

Explored 1 nodes (297 simplex iterations) in 0.01 seconds (0.01 work units)
Thread count was 24 (of 24 available processors)

Solution count 2: 1.33227e-15 26.2957 

Optimal solution found (tolerance 1.00e-04)
Best objective 0.000000000000e+00, best bound 0.000000000000e+00, gap 0.0000%

User-callback calls 40, time in user-callback 0.00 sec
  VI-only LB = 0.000000, x = [0, 0, 0, 0, 0, 0, 0, 0, 0, 0, 0, 1, 0, 0, 0, 0, 0, 0, 0, 0, 1, 0, 1, 0, 0, 0, 0, 0, 0, 0, 0, 0, 0, 0, 0, 0]
----------------------------------------

======================================================================
1. True-DRO Benders (bilinear subproblem via Gurobi NonConvex=2)
======================================================================
Set parameter Username
Set parameter LicenseID to value 2742039
Academic license - for non-commercial use only - expires 2026-11-20
Set parameter Username
Set parameter LicenseID to value 2742039
Academic license - for non-commercial use only - expires 2026-11-20
Set parameter DualReductions to value 0
Set parameter NonConvex to value 2
Set parameter LogFile to value "global_miqcp.log"
Set parameter Username
Set parameter LicenseID to value 2742039
Academic license - for non-commercial use only - expires 2026-11-20
Set parameter DualReductions to value 0
Set parameter NonConvex to value 2
Set parameter OptimalityTarget to value 1
Set parameter Username
Set parameter LicenseID to value 2742039
Academic license - for non-commercial use only - expires 2026-11-20
Set parameter Username
Set parameter LicenseID to value 2742039
Academic license - for non-commercial use only - expires 2026-11-20
Set parameter Username
Set parameter LicenseID to value 2742039
Academic license - for non-commercial use only - expires 2026-11-20

=== True-DRO Benders iter 1 ===
  OMP: t₀=0.000000, UB=Inf, gap=NaN, x=[0, 0, 0, 0, 0, 0, 0, 0, 0, 0, 0, 1, 0, 0, 0, 0, 0, 0, 0, 0, 1, 0, 1, 0, 0, 0, 0, 0, 0, 0, 0, 0, 0, 0, 0, 0] (0.017s)
Set parameter TimeLimit to value 30
Set parameter MIPGap to value 0.0001
Set parameter MIPFocus to value 0
Set parameter NonConvex to value 2
Set parameter MIPGap to value 0.0001
Set parameter DualReductions to value 0
Set parameter OptimalityTarget to value 1
Set parameter MIPFocus to value 0
Set parameter TimeLimit to value 30
Gurobi Optimizer version 13.0.0 build v13.0.0rc1 (win64 - Windows 10.0 (19045.2))

CPU model: AMD Ryzen 9 5900X 12-Core Processor, instruction set [SSE2|AVX|AVX2]
Thread count: 12 physical cores, 24 logical processors, using up to 24 threads

Non-default parameters:
TimeLimit  30
OptimalityTarget  1
DualReductions  0
NonConvex  2

Optimize a model with 4218 rows, 8405 columns and 20033 nonzeros (Max)
Model fingerprint: 0x985d4da6
Model has 1496 linear objective coefficients
Model has 1440 quadratic constraints
Coefficient statistics:
  Matrix range     [2e-01, 3e+01]
  QMatrix range    [1e+00, 1e+00]
  QLMatrix range   [1e+00, 1e+00]
  Objective range  [1e+00, 2e+00]
  Bounds range     [1e+00, 1e+01]
  RHS range        [5e-02, 3e+00]

Continuous model is non-convex -- solving with NL barrier

Presolve removed 1440 rows and 1440 columns
Presolve time: 0.01s
Presolved: 2778 rows, 6965 columns, 12833 nonzeros
Presolved model has 1440 quadratic constraint(s)
Ordering time: 0.01s

NL barrier statistics:
  Hessian NZ  : 1.440e+03
  Jacobian NZ : 2.003e+04
  Factor NZ   : 1.308e+05
  Factor Ops  : 2.546e+06
  Threads     : 1

                           Residuals
Iter     Objective      Primal     Dual      Compl     Step     Time
   0  -1.09367926e+04  7.68e+04  2.94e+03  3.71e+02  0.00e+00     0s
   1  -1.13830265e+04  5.76e+04  2.59e+03  3.27e+02  2.51e-01     0s
   2  -1.21190946e+04  3.32e+04  2.18e+03  2.89e+02  4.23e-01     0s
   3  -1.24445729e+04  2.41e+04  1.22e+03  1.55e+02  2.75e-01     0s
   4  -1.25934985e+04  1.95e+04  4.96e+02  5.74e+01  1.89e-01     0s
   5  -1.23658451e+04  5.55e+03  2.57e+02  2.90e+01  7.16e-01     0s
   6  -1.18449523e+04  4.27e+03  6.57e+01  8.81e+00  2.31e-01     0s
   7  -7.72259178e+03  7.93e+02  6.95e+00  1.74e+00  8.14e-01     0s
   8  -6.12628927e+03  3.59e+02  2.59e+00  1.32e+00  5.47e-01     0s
   9  -5.66556624e+03  2.21e+02  1.56e+00  1.20e+00  3.85e-01     0s
  10  -5.39008510e+03  1.41e+02  8.27e-01  1.12e+00  3.62e-01     0s
  11  -5.17897925e+03  8.37e+01  4.13e-01  1.07e+00  4.07e-01     0s
  12  -5.03586138e+03  5.15e+01  2.25e-01  1.04e+00  3.85e-01     0s
  13  -4.91534369e+03  2.52e+01  3.31e-02  1.01e+00  5.11e-01     0s
  14  -4.81462893e+03  2.59e-06  1.04e-04  1.00e+00  1.00e+00     0s
  15  -4.80981797e+03  8.34e-09  2.44e-07  1.00e+00  1.00e+00     0s
  16  -4.80945149e+03  2.21e-09  2.57e-08  1.00e+00  1.00e+00     0s
  17  -2.68463238e+03  2.45e-05  4.16e-03  4.05e-01  6.37e-01     0s
  18  -1.39333677e+03  1.71e-04  5.81e-02  3.02e-01  7.16e-01     0s
  19  -8.15514581e+02  1.57e-04  4.98e-02  1.63e-01  8.91e-01     0s
  20  -7.49234929e+02  3.09e-04  1.23e-02  1.50e-01  1.00e+00     0s
  21  -7.49092440e+02  4.93e-06  6.11e-05  1.50e-01  1.00e+00     0s
  22  -4.67587242e+02  3.37e-04  6.88e-02  8.59e-02  3.92e-01     0s
  23  -2.58876450e+02  7.53e-03  5.18e-01  4.64e-02  4.97e-01     0s
  24  -1.37014850e+02  6.95e-03  3.65e-01  2.80e-02  6.24e-01     0s
  25  -7.20818212e+01  6.42e-03  6.30e-02  2.25e-02  1.00e+00     0s
  26  -7.38368119e+01  1.40e-04  2.67e-03  2.25e-02  1.00e+00     0s
  27  -7.37714919e+01  1.36e-06  1.83e-04  2.25e-02  1.00e+00     0s
  28  -2.05572869e+01  1.56e-02  1.54e-01  1.36e-02  6.00e-01     0s
  29   9.19866165e+00  3.71e-02  1.77e-01  7.55e-03  8.64e-01     0s
  30   1.00361542e+01  3.31e-02  6.56e-02  5.40e-03  1.12e-01     0s
  31   1.41793826e+01  2.12e-03  1.30e-02  3.58e-03  1.00e+00     0s
  32   1.50184274e+01  9.41e-05  5.58e-04  3.38e-03  1.00e+00     0s
  33   1.49737396e+01  1.79e-06  1.38e-05  3.37e-03  1.00e+00     0s
  34   2.22178084e+01  3.33e-03  1.01e-02  1.67e-03  5.03e-01     0s
  35   2.41204061e+01  3.49e-03  2.69e-02  9.99e-04  2.60e-01     0s
  36   2.58542179e+01  3.62e-03  2.38e-02  6.51e-04  3.73e-01     0s
  37   2.69227411e+01  2.81e-03  2.05e-02  5.29e-04  3.26e-01     0s
  38   2.81271126e+01  1.66e-03  1.26e-02  3.81e-04  6.61e-01     0s
  39   2.87874636e+01  4.43e-05  4.85e-03  3.45e-04  1.00e+00     0s
  40   2.87828023e+01  4.05e-07  2.64e-05  3.46e-04  1.00e+00     0s
  41   2.87841278e+01  3.24e-09  1.48e-06  3.46e-04  1.00e+00     0s
  42   2.87841512e+01  2.24e-10  5.62e-10  3.46e-04  1.00e+00     0s
  43   2.92023912e+01  2.97e-05  1.01e-02  1.61e-04  3.08e-01     0s
  44   2.99683707e+01  3.40e-04  7.48e-03  8.95e-05  7.53e-01     0s
  45   3.01490811e+01  7.56e-05  3.20e-03  4.10e-05  7.43e-01     0s
  46   3.02189300e+01  1.73e-05  1.85e-04  1.44e-05  9.77e-01     0s
  47   3.02203167e+01  3.36e-07  6.54e-06  1.43e-05  1.00e+00     0s
  48   3.02203060e+01  2.97e-09  6.10e-08  1.43e-05  1.00e+00     0s
  49   3.02748446e+01  4.89e-06  4.09e-04  3.01e-06  8.30e-01     0s
  50   3.02864974e+01  1.99e-07  8.11e-07  1.65e-07  1.00e+00     0s
  51   3.02864972e+01  3.37e-12  1.63e-09  1.65e-07  1.00e+00     0s
  52   3.02872704e+01  1.02e-09  2.23e-08  1.00e-09  1.00e+00     0s
  53   3.02872704e+01  1.14e-11  2.34e-12  1.00e-09  1.00e+00     0s

NL barrier solved model in 53 iterations and 0.25 seconds (0.32 work units)
First-order optimal solution
Solution objective 3.028727044500e+01

User-callback calls 220, time in user-callback 0.00 sec
  Sub: Z₀=30.287270 [LOCAL], α=[0.000,0.000,0.000,0.000,0.000,0.000,0.000,0.000,0.000,0.000,0.000,0.000,0.000,0.000,0.000,0.000,0.000,0.000,0.000,0.000,0.000,0.000,3.137,0.000,0.000,0.000,0.000,0.000,0.000,0.000,0.000,0.000,0.000,0.000,0.000,0.000]
  Iter 1: LB=0.000000  UB=Inf  gap=NaN
  Cut: intercept=-861.862175, π_x_range=[-420.6811, 298.4145]
  [ρ-diag] φ̂U=1.00, φ̃U=2.00, λU=2.00
    π_L range=[-138.1253, 90.3157], |π_L|_∞=138.1253
    π_F range=[-269.3605, 191.8085], |π_F|_∞=269.3605
    π_ψ range=[-13.3333, 17.7796], |π_ψ|_∞=17.7796
    ρ̂1: [0.0000, 8.7928], ρ̂3: [0.0000, 5.0000]
    ρ̃1: [0.0000, 6.8623], ρ̃3: [0.0000, 4.9800]
    ρ⁰1: [0.0000, 6.6667], ρ⁰3: [0.0000, 8.8898]
  [φ-diag] φ̂ actual: [-0.0000, 1.0000], φ̂U=1.00
  [φ-diag] φ̃ actual: [-0.0000, 2.0000], φ̃U=2.00
  Mini-Benders[1] (mw): LB=0.000000, Z₀(α*)=33.137925, intercept=43.647369
  Mini-Benders[2] (mw): LB=-0.000000, Z₀(α*)=3.137000, intercept=24.821714
  Mini-Benders[3] (mw): LB=1.509223, Z₀(α*)=6.162645, intercept=26.504030
  Mini-Benders[4] (mw): LB=2.484152, Z₀(α*)=8.773501, intercept=28.560355
  Mini-Benders[5] (mw): LB=3.136999, Z₀(α*)=3.137000, intercept=24.821714
Set parameter NonConvex to value 2
Set parameter DualReductions to value 0
Set parameter LogFile to value "global_miqcp.log"
Gurobi Optimizer version 13.0.0 build v13.0.0rc1 (win64 - Windows 10.0 (19045.2))

CPU model: AMD Ryzen 9 5900X 12-Core Processor, instruction set [SSE2|AVX|AVX2]
Thread count: 12 physical cores, 24 logical processors, using up to 24 threads

Non-default parameters:
DualReductions  0
NonConvex  2

Optimize a model with 4218 rows, 8405 columns and 20033 nonzeros (Max)
Model fingerprint: 0x4b3fc0d9
Model has 1496 linear objective coefficients
Model has 1440 quadratic constraints
Coefficient statistics:
  Matrix range     [2e-01, 3e+01]
  QMatrix range    [1e+00, 1e+00]
  QLMatrix range   [1e+00, 1e+00]
  Objective range  [1e+00, 2e+00]
  Bounds range     [3e-02, 3e+00]
  RHS range        [5e-02, 3e+00]
Presolve removed 102 rows and 976 columns
Presolve time: 0.00s
Presolved: 4620 rows, 7429 columns, 17305 nonzeros
Ordering time: 0.00s

Barrier statistics:
 Free vars  : 200
 AA' NZ     : 1.523e+04
 Factor NZ  : 1.128e+05 (roughly 6 MB of memory)
 Factor Ops : 6.903e+06 (less than 1 second per iteration)
 Threads    : 12

                  Objective                Residual
Iter       Primal          Dual         Primal    Dual     Compl     Time
   0  -3.65016921e+04 -0.00000000e+00  6.00e+03 1.00e+00  1.02e+02     0s
   1  -3.84540089e+04  6.42279322e+02  2.64e+03 5.37e+00  5.85e+01     0s
   2  -3.61261563e+04  7.77532840e+02  6.02e+02 1.88e+00  2.05e+01     0s
   3  -2.61923212e+04  5.83037202e+02  6.53e+01 6.72e-01  7.19e+00     0s
   4  -1.07637247e+04  4.31374452e+02  3.41e+00 1.96e-01  2.02e+00     0s
   5  -3.25791168e+03  2.57205320e+02  7.22e-01 2.43e-02  4.14e-01     0s
   6  -7.56417243e+02  1.19540209e+02  1.68e-01 2.49e-03  8.94e-02     0s
   7  -1.95488280e+02  5.58799713e+01  4.37e-02 7.49e-04  2.63e-02     0s
   8  -3.25669732e+01  1.08578932e+01  7.00e-03 4.82e-05  4.18e-03     0s
   9  -6.55945513e+00  4.54296443e+00  1.80e-03 5.15e-06  1.03e-03     0s
  10   2.98792562e+00  3.17779320e+00  7.94e-06 7.96e-08  1.70e-05     0s
  11   3.13682086e+00  3.13702549e+00  1.16e-07 2.91e-11  1.82e-08     0s
  12   3.13699963e+00  3.13700003e+00  1.49e-09 6.69e-14  3.58e-11     0s
  13   3.13700000e+00  3.13700000e+00  2.98e-12 1.42e-14  4.88e-17     0s

Barrier solved model in 13 iterations and 0.04 seconds (0.04 work units)
Optimal objective 3.13700000e+00


User-callback calls 59, time in user-callback 0.00 sec
  α-step: Z₀=3.137000, α=[0.000,0.000,0.000,0.000,0.000,1.026,0.000,0.000,0.000,0.000,0.000,0.000,0.000,0.926,0.000,0.000,0.000,0.000,0.000,0.000,0.000,0.000,1.185,0.000,0.000,0.000,0.000,0.000,0.000,0.000,0.000,0.000,0.000,0.000,0.000,0.000]
  Alt-Benders[1] (mw): LB=3.137000, Z₀(α*)=3.137000, intercept=37.747877
  Alt-Benders[2] (mw): LB=3.137000, Z₀(α*)=3.137000, intercept=37.747877
  Alt-Benders[3] (mw): LB=3.137000, Z₀(α*)=3.137000, intercept=37.747877
  Alt-Benders[4]: LB stagnated, break
  OMP re-solve: 0.000s

=== True-DRO Benders iter 2 ===
  OMP: t₀=3.137000, UB=Inf, gap=NaN, x=[0, 0, 0, 0, 0, 1, 0, 0, 0, 0, 0, 0, 0, 1, 0, 0, 0, 0, 0, 0, 0, 0, 1, 0, 0, 0, 0, 0, 0, 0, 0, 0, 0, 0, 0, 0] (0.000s)
Set parameter TimeLimit to value 30
Set parameter MIPGap to value 0.0001
Set parameter MIPFocus to value 0
Gurobi Optimizer version 13.0.0 build v13.0.0rc1 (win64 - Windows 10.0 (19045.2))

CPU model: AMD Ryzen 9 5900X 12-Core Processor, instruction set [SSE2|AVX|AVX2]
Thread count: 12 physical cores, 24 logical processors, using up to 24 threads

Non-default parameters:
TimeLimit  30
OptimalityTarget  1
DualReductions  0
NonConvex  2

Optimize a model with 4218 rows, 8405 columns and 20033 nonzeros (Max)
Model fingerprint: 0xe304ea81
Model has 1496 linear objective coefficients
Model has 1440 quadratic constraints
Variable types: 8405 continuous, 0 integer (0 binary)
Coefficient statistics:
  Matrix range     [2e-01, 3e+01]
  QMatrix range    [1e+00, 1e+00]
  QLMatrix range   [1e+00, 1e+00]
  Objective range  [1e+00, 2e+00]
  Bounds range     [1e+00, 1e+01]
  RHS range        [5e-02, 3e+00]
Presolve removed 1440 rows and 1440 columns
Presolve time: 0.01s
Presolved: 2778 rows, 6965 columns, 12833 nonzeros
Presolved model has 1440 quadratic constraint(s)

Solving NLP to local optimality

Ordering time: 0.01s

NL barrier statistics:
  Hessian NZ  : 1.440e+03
  Jacobian NZ : 2.003e+04
  Factor NZ   : 1.308e+05
  Factor Ops  : 2.546e+06
  Threads     : 1

                           Residuals
Iter     Objective      Primal     Dual      Compl     Step     Time
   0  -1.09507749e+04  7.68e+04  2.94e+03  3.71e+02  0.00e+00     0s
   1  -1.13925349e+04  5.76e+04  2.59e+03  3.27e+02  2.51e-01     0s
   2  -1.21212408e+04  3.32e+04  2.18e+03  2.89e+02  4.23e-01     0s
   3  -1.24430397e+04  2.41e+04  1.22e+03  1.55e+02  2.75e-01     0s
   4  -1.25896818e+04  1.95e+04  4.96e+02  5.74e+01  1.89e-01     0s
   5  -1.23535061e+04  5.55e+03  2.58e+02  2.91e+01  7.16e-01     0s
   6  -1.18322814e+04  4.27e+03  6.55e+01  8.81e+00  2.31e-01     0s
   7  -7.67907549e+03  7.44e+02  6.89e+00  1.72e+00  8.26e-01     0s
   8  -6.10863240e+03  3.40e+02  2.68e+00  1.32e+00  5.43e-01     0s
   9  -5.68057125e+03  2.20e+02  1.66e+00  1.20e+00  3.54e-01     0s
  10  -5.40252519e+03  1.41e+02  8.99e-01  1.12e+00  3.56e-01     0s
  11  -5.19028337e+03  8.32e+01  5.46e-01  1.07e+00  4.11e-01     0s
  12  -5.00917338e+03  4.58e+01  3.52e-01  1.04e+00  4.50e-01     0s
  13  -4.92678563e+03  2.70e+01  3.54e-02  1.02e+00  4.10e-01     0s
  14  -4.81429894e+03  3.05e-06  2.07e-04  1.00e+00  1.00e+00     0s
  15  -4.80999639e+03  2.62e-08  9.65e-07  1.00e+00  1.00e+00     0s
  16  -4.80975152e+03  4.73e-09  1.76e-07  1.00e+00  1.00e+00     0s
  17  -2.71513049e+03  2.47e-05  5.20e-03  4.09e-01  6.28e-01     0s
  18  -1.41999939e+03  1.83e-04  6.03e-02  3.06e-01  7.05e-01     0s
  19  -1.02517445e+03  1.44e-04  2.50e-02  1.77e-01  5.84e-01     0s
  20  -7.46516905e+02  4.39e-04  1.38e-02  1.50e-01  9.95e-01     0s
  21  -7.50276003e+02  1.31e-05  7.48e-04  1.50e-01  1.00e+00     0s
  22  -7.50011885e+02  7.47e-09  2.51e-07  1.50e-01  1.00e+00     0s
  23  -7.49979670e+02  2.99e-10  2.37e-09  1.50e-01  1.00e+00     0s
  24  -4.98756470e+02  2.57e-04  1.16e-01  8.74e-02  3.51e-01     0s
  25  -2.53640320e+02  5.98e-03  2.12e-01  5.26e-02  5.47e-01     0s
  26  -1.20406873e+02  3.10e-03  2.63e-01  3.24e-02  7.22e-01     0s
  27  -8.11334437e+01  9.64e-04  2.63e-02  2.25e-02  1.00e+00     0s
  28  -8.27633408e+01  1.11e-05  7.99e-04  2.25e-02  1.00e+00     0s
  29  -3.34558495e+01  7.56e-04  6.13e-02  1.14e-02  5.96e-01     0s
  30  -1.36930144e+01  5.53e-04  4.03e-02  5.73e-03  7.27e-01     0s
  31  -8.09779442e+00  3.87e-05  8.54e-03  3.38e-03  1.00e+00     0s
  32  -8.04145179e+00  4.23e-05  6.73e-04  3.38e-03  1.00e+00     0s
  33  -8.04299616e+00  2.08e-08  1.29e-06  3.37e-03  1.00e+00     0s
  34  -4.00971125e-01  7.98e-05  1.27e-02  7.64e-04  7.41e-01     0s
  35   1.90121538e+00  1.33e-05  1.77e-03  3.54e-04  9.42e-01     0s
  36   2.02440919e+00  8.76e-06  4.77e-04  3.46e-04  1.00e+00     0s
  37   2.02464600e+00  1.12e-07  6.49e-06  3.46e-04  1.00e+00     0s
  38   2.86975378e+00  9.27e-06  9.20e-04  7.03e-05  7.88e-01     0s
  39   3.08854914e+00  1.12e-06  2.55e-04  1.45e-05  9.86e-01     0s
  40   3.09136852e+00  4.91e-07  1.25e-05  1.43e-05  1.00e+00     0s
  41   3.09136902e+00  8.94e-10  1.65e-08  1.43e-05  1.00e+00     0s
  42   3.13538709e+00  2.62e-08  5.12e-06  3.25e-07  9.76e-01     0s
  43   3.13647354e+00  8.70e-10  4.76e-09  1.65e-07  1.00e+00     0s
  44   3.13699681e+00  4.70e-12  8.99e-10  1.00e-09  1.00e+00     0s

NL barrier solved model in 44 iterations and 0.21 seconds (0.27 work units)
First-order optimal solution
Solution objective 3.136996810418e+00

User-callback calls 192, time in user-callback 0.00 sec
  Sub: Z₀=3.136997 [LOCAL], α=[0.000,0.000,0.000,0.000,0.000,1.037,0.000,0.000,0.000,0.000,0.000,0.000,0.000,0.895,0.000,0.000,0.000,0.000,0.000,0.000,0.000,0.000,1.205,0.000,0.000,0.000,0.000,0.000,0.000,0.000,0.000,0.000,0.000,0.000,0.000,0.000]
  Iter 2: LB=3.137000  UB=Inf  gap=NaN
  Cut: intercept=-913.388297, π_x_range=[-416.4527, 306.2770]
  [ρ-diag] φ̂U=1.00, φ̃U=2.00, λU=2.00
    π_L range=[-134.3499, 96.2770], |π_L|_∞=134.3499
    π_F range=[-268.7694, 193.9377], |π_F|_∞=268.7694
    π_ψ range=[-13.3333, 18.2131], |π_ψ|_∞=18.2131
    ρ̂1: [0.0004, 6.8234], ρ̂3: [0.0000, 4.9785]
    ρ̃1: [0.0000, 6.8274], ρ̃3: [0.0000, 4.9781]
    ρ⁰1: [0.0000, 6.6667], ρ⁰3: [0.0000, 9.1066]
  [φ-diag] φ̂ actual: [-0.0000, 1.0000], φ̂U=1.00
  [φ-diag] φ̃ actual: [-0.0000, 0.0000], φ̃U=2.00
  Mini-Benders[1] (mw): LB=3.137000, Z₀(α*)=3.137000, intercept=37.753323
  Mini-Benders[2] (mw): LB=3.137000, Z₀(α*)=3.137000, intercept=37.753323
  Mini-Benders[3]: LB stagnated, break
Gurobi Optimizer version 13.0.0 build v13.0.0rc1 (win64 - Windows 10.0 (19045.2))

CPU model: AMD Ryzen 9 5900X 12-Core Processor, instruction set [SSE2|AVX|AVX2]
Thread count: 12 physical cores, 24 logical processors, using up to 24 threads

Non-default parameters:
DualReductions  0
NonConvex  2

Optimize a model with 4218 rows, 8405 columns and 20033 nonzeros (Max)
Model fingerprint: 0x4593a58b
Model has 1496 linear objective coefficients
Model has 1440 quadratic constraints
Coefficient statistics:
  Matrix range     [2e-01, 3e+01]
  QMatrix range    [1e+00, 1e+00]
  QLMatrix range   [1e+00, 1e+00]
  Objective range  [1e+00, 2e+00]
  Bounds range     [3e-02, 3e+00]
  RHS range        [5e-02, 3e+00]
Presolve removed 102 rows and 976 columns
Presolve time: 0.00s
Presolved: 4620 rows, 7429 columns, 17305 nonzeros
Ordering time: 0.00s

Barrier statistics:
 Free vars  : 200
 AA' NZ     : 1.523e+04
 Factor NZ  : 1.128e+05 (roughly 6 MB of memory)
 Factor Ops : 6.903e+06 (less than 1 second per iteration)
 Threads    : 12

                  Objective                Residual
Iter       Primal          Dual         Primal    Dual     Compl     Time
   0  -3.70160970e+04 -0.00000000e+00  6.08e+03 1.00e+00  1.03e+02     0s
   1  -3.90123998e+04  5.60332260e+02  2.68e+03 5.36e+00  5.93e+01     0s
   2  -3.66716187e+04  6.78060859e+02  6.10e+02 1.88e+00  2.08e+01     0s
   3  -2.66097342e+04  5.06990647e+02  6.62e+01 6.72e-01  7.29e+00     0s
   4  -1.09745786e+04  3.69753669e+02  3.47e+00 1.96e-01  2.04e+00     0s
   5  -2.90022207e+03  2.27010342e+02  5.82e-01 2.44e-02  3.80e-01     0s
   6  -8.05494996e+02  9.85564347e+01  1.58e-01 2.89e-03  9.35e-02     0s
   7  -2.04662949e+02  5.57094607e+01  4.02e-02 1.30e-03  2.95e-02     0s
   8  -3.31442627e+01  1.34987754e+01  6.19e-03 4.89e-05  4.41e-03     0s
   9  -5.29319910e+00  5.38484233e+00  1.30e-03 6.28e-06  9.94e-04     0s
  10   2.03960787e+00  3.29572853e+00  1.58e-04 2.16e-07  1.13e-04     0s
  11   3.10030355e+00  3.14022446e+00  4.08e-06 1.16e-08  3.50e-06     0s
  12   3.11959677e+00  3.13740968e+00  9.68e-06 1.75e-09  1.59e-06     0s
  13   3.13699411e+00  3.13700015e+00  2.57e-07 1.65e-10  4.18e-10     0s
  14   3.13700000e+00  3.13700000e+00  3.37e-09 2.85e-14  5.71e-16     0s

Barrier solved model in 14 iterations and 0.05 seconds (0.04 work units)
Optimal objective 3.13700000e+00


User-callback calls 58, time in user-callback 0.00 sec
  α-step: Z₀=3.137000, α=[0.000,0.000,0.000,0.000,0.000,1.028,0.000,0.000,0.000,0.000,0.000,0.000,0.000,0.896,0.000,0.000,0.000,0.000,0.000,0.000,0.000,0.000,1.213,0.000,0.000,0.000,0.000,0.000,0.000,0.000,0.000,0.000,0.000,0.000,0.000,0.000]
  Alt-Benders[1] (mw): LB=3.137000, Z₀(α*)=3.137000, intercept=37.755649
  Alt-Benders[2] (mw): LB=3.137000, Z₀(α*)=3.137000, intercept=37.755649
  Alt-Benders[3]: LB stagnated, break
  OMP re-solve: 0.000s

=== True-DRO Benders iter 3 ===
  OMP: t₀=3.137000, UB=Inf, gap=NaN, x=[0, 0, 0, 0, 0, 1, 0, 0, 0, 0, 0, 0, 0, 1, 0, 0, 0, 0, 0, 0, 0, 0, 1, 0, 0, 0, 0, 0, 0, 0, 0, 0, 0, 0, 0, 0] (0.000s)
Set parameter TimeLimit to value 30
Set parameter MIPGap to value 0.0001
Set parameter MIPFocus to value 0
Gurobi Optimizer version 13.0.0 build v13.0.0rc1 (win64 - Windows 10.0 (19045.2))

CPU model: AMD Ryzen 9 5900X 12-Core Processor, instruction set [SSE2|AVX|AVX2]
Thread count: 12 physical cores, 24 logical processors, using up to 24 threads

Non-default parameters:
TimeLimit  30
DualReductions  0
NonConvex  2

Optimize a model with 4218 rows, 8405 columns and 20033 nonzeros (Max)
Model fingerprint: 0x7fc5f318
Model has 1496 linear objective coefficients
Model has 1440 quadratic constraints
Coefficient statistics:
  Matrix range     [2e-01, 3e+01]
  QMatrix range    [1e+00, 1e+00]
  QLMatrix range   [1e+00, 1e+00]
  Objective range  [1e+00, 2e+00]
  Bounds range     [1e+00, 3e+00]
  RHS range        [5e-02, 3e+00]

Continuous model is non-convex -- solving as a MIP

Presolve time: 0.01s
Presolved: 9978 rows, 8406 columns, 31553 nonzeros
Presolved model has 1440 bilinear constraint(s)
Variable types: 8406 continuous, 0 integer (0 binary)
Found heuristic solution: objective 3.1369970

Root relaxation: objective 9.411000e+00, 4308 iterations, 0.13 seconds (0.23 work units)

    Nodes    |    Current Node    |     Objective Bounds      |     Work
 Expl Unexpl |  Obj  Depth IntInf | Incumbent    BestBd   Gap | It/Node Time

     0     0    9.41100    0  140    3.13700    9.41100   200%     -    0s
     0     0          -    0         3.13700    3.13700  0.00%     -    0s

Cutting planes:
  RLT: 48

Explored 1 nodes (4337 simplex iterations) in 0.29 seconds (0.41 work units)
Thread count was 24 (of 24 available processors)

Solution count 1: 3.137 

Optimal solution found (tolerance 1.00e-04)
Best objective 3.136997003706e+00, best bound 3.137000000000e+00, gap 0.0001%

User-callback calls 119, time in user-callback 0.00 sec
  Sub: Z₀=3.136997, α=[0.000,0.000,0.000,0.000,0.000,1.048,0.000,0.000,0.000,0.000,0.000,0.000,0.000,0.903,0.000,0.000,0.000,0.000,0.000,0.000,0.000,0.000,1.186,0.000,0.000,0.000,0.000,0.000,0.000,0.000,0.000,0.000,0.000,0.000,0.000,0.000]
  Iter 3: LB=3.137000  UB=3.136997  gap=9.87e-07
True-DRO Benders converged at iter 3 (gap=9.87e-07)
  Wall time: 2.91 sec
  OMP  time: mean=0.051s, median=0.057s, max=0.102s
  Sub  time (exact): mean=0.305s, median=0.305s, q90=0.305s, max=0.305s (n=1/3)

----------------------------------------
True-DRO: status=Optimal, Z₀=3.136997, iters=3, time=2.91s
  LB=3.137000, UB=3.136997, gap=9.87e-07
  x* = [0, 0, 0, 0, 0, 1, 0, 0, 0, 0, 0, 0, 0, 1, 0, 0, 0, 0, 0, 0, 0, 0, 1, 0, 0, 0, 0, 0, 0, 0, 0, 0, 0, 0, 0, 0]
  α* = [0.000, 0.000, 0.000, 0.000, 0.000, 1.048, 0.000, 0.000, 0.000, 0.000, 0.000, 0.000, 0.000, 0.903, 0.000, 0.000, 0.000, 0.000, 0.000, 0.000, 0.000, 0.000, 1.186, 0.000, 0.000, 0.000, 0.000, 0.000, 0.000, 0.000, 0.000, 0.000, 0.000, 0.000, 0.000, 0.000]
  Profile saved → C:\Users\user\robust_bilevel_network_games\true_dro\profiles.jls (36 entries)
============================================================
Primal Recovery: x* → α* → (h*, λ*, ψ⁰*)
============================================================
  x* = [0, 0, 0, 0, 0, 1, 0, 0, 0, 0, 0, 0, 0, 1, 0, 0, 0, 0, 0, 0, 0, 0, 1, 0, 0, 0, 0, 0, 0, 0, 0, 0, 0, 0, 0, 0]
  α* = [0.0000, 0.0000, 0.0000, 0.0000, 0.0000, 1.0480, 0.0000, 0.0000, 0.0000, 0.0000, 0.0000, 0.0000, 0.0000, 0.9026, 0.0000, 0.0000, 0.0000, 0.0000, 0.0000, 0.0000, 0.0000, 0.0000, 1.1864, 0.0000, 0.0000, 0.0000, 0.0000, 0.0000, 0.0000, 0.0000, 0.0000, 0.0000, 0.0000, 0.0000, 0.0000, 0.0000]

  Piece-F obj = 0.000000
  λ*   = -0.000000
  Σh*  = 0.000000  (budget: λw = -0.000000)

  h* (nonzero arcs):
  ψ⁰* (nonzero arcs):

  Per-scenario sink flow ỹ_ts:
    s=1: ỹ_ts=-0.000000
    s=2: ỹ_ts=-0.000000
    s=3: ỹ_ts=-0.000000
    s=4: ỹ_ts=-0.000000
    s=5: ỹ_ts=-0.000000
    s=6: ỹ_ts=-0.000000
    s=7: ỹ_ts=-0.000000
    s=8: ỹ_ts=-0.000000
    s=9: ỹ_ts=-0.000000
    s=10: ỹ_ts=-0.000000
    s=11: ỹ_ts=-0.000000
    s=12: ỹ_ts=-0.000000
    s=13: ỹ_ts=-0.000000
    s=14: ỹ_ts=-0.000000
    s=15: ỹ_ts=-0.000000
    s=16: ỹ_ts=-0.000000
    s=17: ỹ_ts=-0.000000
    s=18: ỹ_ts=-0.000000
    s=19: ỹ_ts=-0.000000
    s=20: ỹ_ts=-0.000000

  Z₀(Benders) = 3.136997
  Piece-F(recovered) = 0.000000

Finished: 2026-04-17T14:40:52.493
